# Cost: 344

# Tail Head Net
33 13 1
53 33 1
54 53 1
74 54 1
94 74 1
114 94 1
134 114 1
154 134 1
174 154 1
194 174 1
214 194 1
234 214 1
254 234 1
274 254 1
275 274 1
276 275 1
277 276 1
277 297 1
278 277 1
279 278 1
280 279 1
297 317 1
317 717 1
377 397 1
391 390 1
392 391 1
393 392 1
394 393 1
395 394 1
396 395 1
397 396 1
717 737 1
737 757 1
757 777 1
777 377 1
15 16 2
16 17 2
17 18 2
18 19 2
19 20 2
85 485 2
105 85 2
125 105 2
141 142 2
142 143 2
143 144 2
144 145 2
145 125 2
145 165 2
165 185 2
185 205 2
205 225 2
225 245 2
245 265 2
265 285 2
285 305 2
305 325 2
325 345 2
345 365 2
365 385 2
405 406 2
406 407 2
407 408 2
408 409 2
409 410 2
410 411 2
411 412 2
412 413 2
413 414 2
414 415 2
415 15 2
425 405 2
445 425 2
465 445 2
485 465 2
28 8 3
48 28 3
68 48 3
88 68 3
108 88 3
128 108 3
148 128 3
168 148 3
188 168 3
208 188 3
220 240 3
228 208 3
240 640 3
306 326 3
326 346 3
346 366 3
366 386 3
628 228 3
628 648 3
629 628 3
630 629 3
631 630 3
632 631 3
633 632 3
634 633 3
635 634 3
636 635 3
637 636 3
638 637 3
639 638 3
640 639 3
640 660 3
648 668 3
660 680 3
668 688 3
680 700 3
686 706 3
687 686 3
688 687 3
700 300 3
706 306 3
221 201 4
241 221 4
261 241 4
261 281 4
281 301 4
301 321 4
321 341 4
341 342 4
342 343 4
343 363 4
363 383 4
4 5 5
5 6 5
6 7 5
7 27 5
27 47 5
47 447 5
140 160 5
160 180 5
180 200 5
447 467 5
467 487 5
487 488 5
488 489 5
489 490 5
490 491 5
491 492 5
492 493 5
493 494 5
494 495 5
495 496 5
496 497 5
497 498 5
498 518 5
518 519 5
519 539 5
539 540 5
540 140 5
119 120 6
120 100 6
139 119 6
159 139 6
177 178 6
178 179 6
179 159 6
197 177 6
217 197 6
237 217 6
257 237 6
384 784 6
657 257 6
675 676 6
676 677 6
677 657 6
695 675 6
715 695 6
735 715 6
754 755 6
755 735 6
771 772 6
772 773 6
773 774 6
774 754 6
782 382 6
783 782 6
784 783 6
784 785 6
785 786 6
786 787 6
787 788 6
788 789 6
789 790 6
790 791 6
791 771 6
334 734 7
335 334 7
336 335 7
337 336 7
338 337 7
339 338 7
340 339 7
368 388 7
403 3 7
423 403 7
443 423 7
463 443 7
483 463 7
503 483 7
523 503 7
543 523 7
563 543 7
583 563 7
603 583 7
623 603 7
643 623 7
663 643 7
683 663 7
703 683 7
723 703 7
723 743 7
724 723 7
725 724 7
726 725 7
727 726 7
728 727 7
728 748 7
729 728 7
730 729 7
731 730 7
732 731 7
733 732 7
734 733 7
742 762 7
743 742 7
748 768 7
761 361 7
762 761 7
768 368 7
1 2 8
21 1 8
41 21 8
61 41 8
61 62 8
62 63 8
63 64 8
64 65 8
65 66 8
66 86 8
86 87 8
87 107 8
107 127 8
127 147 8
147 167 8
167 187 8
187 207 8
207 227 8
227 247 8
247 267 8
267 287 8
287 288 8
288 308 8
308 328 8
328 348 8
348 349 8
349 369 8
369 389 8
60 40 9
76 77 9
77 78 9
78 79 9
79 80 9
80 60 9
96 76 9
116 96 9
121 122 9
122 123 9
123 124 9
124 524 9
136 116 9
524 525 9
525 526 9
526 527 9
527 528 9
528 529 9
529 530 9
530 531 9
531 532 9
532 533 9
533 534 9
534 535 9
535 536 9
536 136 9
102 101 10
103 102 10
104 103 10
219 619 10
239 219 10
259 239 10
260 259 10
504 104 10
505 504 10
506 505 10
507 506 10
508 507 10
509 508 10
510 509 10
511 510 10
512 511 10
513 512 10
514 513 10
515 514 10
516 515 10
517 516 10
537 517 10
538 537 10
558 538 10
559 558 10
579 559 10
599 579 10
619 599 10
9 29 11
29 49 11
49 50 11
50 70 11
70 90 11
90 110 11
110 111 11
111 131 11
131 132 11
132 152 11
152 172 11
172 192 11
192 193 11
193 213 11
213 233 11
233 253 11
253 273 11
273 293 11
293 313 11
313 333 11
333 353 11
353 354 11
354 355 11
355 356 11
356 357 11
357 358 11
358 359 11
359 360 11
